NAME /Users/henri/Research/solvers/instances/idol-instances/robust/collection/cflp_Cheng_et_al_2021/Cap_F15_C15_d100/models/uncertain_technology_matrix/
ROWS
 N  OBJ
 G  demand_0
 G  demand_1
 G  demand_2
 G  demand_3
 G  demand_4
 G  demand_5
 G  demand_6
 G  demand_7
 G  demand_8
 G  demand_9
 G  demand_10
 G  demand_11
 G  demand_12
 G  demand_13
 G  demand_14
 L  capacity_0
 L  capacity_1
 L  capacity_2
 L  capacity_3
 L  capacity_4
 L  capacity_5
 L  capacity_6
 L  capacity_7
 L  capacity_8
 L  capacity_9
 L  capacity_10
 L  capacity_11
 L  capacity_12
 L  capacity_13
 L  capacity_14
COLUMNS
    y_0_0      OBJ        0
    y_0_0      capacity_0 297
    y_0_0      demand_0   1
    y_0_1      OBJ        171124
    y_0_1      capacity_0 179
    y_0_1      demand_1   1
    y_0_2      OBJ        84838
    y_0_2      capacity_0 169
    y_0_2      demand_2   1
    y_0_3      OBJ        98169
    y_0_3      capacity_0 129
    y_0_3      demand_3   1
    y_0_4      OBJ        105256
    y_0_4      capacity_0 118
    y_0_4      demand_4   1
    y_0_5      OBJ        72504
    y_0_5      capacity_0 114
    y_0_5      demand_5   1
    y_0_6      OBJ        83160
    y_0_6      capacity_0 108
    y_0_6      demand_6   1
    y_0_7      OBJ        68264
    y_0_7      capacity_0 92
    y_0_7      demand_7   1
    y_0_8      OBJ        71918
    y_0_8      capacity_0 77
    y_0_8      demand_8   1
    y_0_9      OBJ        56562
    y_0_9      capacity_0 66
    y_0_9      demand_9   1
    y_0_10     OBJ        47808
    y_0_10     capacity_0 64
    y_0_10     demand_10  1
    y_0_11     OBJ        53680
    y_0_11     capacity_0 61
    y_0_11     demand_11  1
    y_0_12     OBJ        60660
    y_0_12     capacity_0 60
    y_0_12     demand_12  1
    y_0_13     OBJ        38830
    y_0_13     capacity_0 55
    y_0_13     demand_13  1
    y_0_14     OBJ        29835
    y_0_14     capacity_0 51
    y_0_14     demand_14  1
    y_1_0      OBJ        283932
    y_1_0      capacity_1 297
    y_1_0      demand_0   1
    y_1_1      OBJ        0
    y_1_1      capacity_1 179
    y_1_1      demand_1   1
    y_1_2      OBJ        91091
    y_1_2      capacity_1 169
    y_1_2      demand_2   1
    y_1_3      OBJ        41409
    y_1_3      capacity_1 129
    y_1_3      demand_3   1
    y_1_4      OBJ        9204
    y_1_4      capacity_1 118
    y_1_4      demand_4   1
    y_1_5      OBJ        36708
    y_1_5      capacity_1 114
    y_1_5      demand_5   1
    y_1_6      OBJ        20628
    y_1_6      capacity_1 108
    y_1_6      demand_6   1
    y_1_7      OBJ        19780
    y_1_7      capacity_1 92
    y_1_7      demand_7   1
    y_1_8      OBJ        4004
    y_1_8      capacity_1 77
    y_1_8      demand_8   1
    y_1_9      OBJ        11022
    y_1_9      capacity_1 66
    y_1_9      demand_9   1
    y_1_10     OBJ        17728
    y_1_10     capacity_1 64
    y_1_10     demand_10  1
    y_1_11     OBJ        7686
    y_1_11     capacity_1 61
    y_1_11     demand_11  1
    y_1_12     OBJ        3360
    y_1_12     capacity_1 60
    y_1_12     demand_12  1
    y_1_13     OBJ        13915
    y_1_13     capacity_1 55
    y_1_13     demand_13  1
    y_1_14     OBJ        19176
    y_1_14     capacity_1 51
    y_1_14     demand_14  1
    y_2_0      OBJ        149094
    y_2_0      capacity_2 297
    y_2_0      demand_0   1
    y_2_1      OBJ        96481
    y_2_1      capacity_2 179
    y_2_1      demand_1   1
    y_2_2      OBJ        0
    y_2_2      capacity_2 169
    y_2_2      demand_2   1
    y_2_3      OBJ        34701
    y_2_3      capacity_2 129
    y_2_3      demand_3   1
    y_2_4      OBJ        54516
    y_2_4      capacity_2 118
    y_2_4      demand_4   1
    y_2_5      OBJ        28386
    y_2_5      capacity_2 114
    y_2_5      demand_5   1
    y_2_6      OBJ        38124
    y_2_6      capacity_2 108
    y_2_6      demand_6   1
    y_2_7      OBJ        33304
    y_2_7      capacity_2 92
    y_2_7      demand_7   1
    y_2_8      OBJ        38500
    y_2_8      capacity_2 77
    y_2_8      demand_8   1
    y_2_9      OBJ        26202
    y_2_9      capacity_2 66
    y_2_9      demand_9   1
    y_2_10     OBJ        17600
    y_2_10     capacity_2 64
    y_2_10     demand_10  1
    y_2_11     OBJ        26230
    y_2_11     capacity_2 61
    y_2_11     demand_11  1
    y_2_12     OBJ        35160
    y_2_12     capacity_2 60
    y_2_12     demand_12  1
    y_2_13     OBJ        16445
    y_2_13     capacity_2 55
    y_2_13     demand_13  1
    y_2_14     OBJ        10149
    y_2_14     capacity_2 51
    y_2_14     demand_14  1
    y_3_0      OBJ        226017
    y_3_0      capacity_3 297
    y_3_0      demand_0   1
    y_3_1      OBJ        57459
    y_3_1      capacity_3 179
    y_3_1      demand_1   1
    y_3_2      OBJ        45461
    y_3_2      capacity_3 169
    y_3_2      demand_2   1
    y_3_3      OBJ        0
    y_3_3      capacity_3 129
    y_3_3      demand_3   1
    y_3_4      OBJ        28910
    y_3_4      capacity_3 118
    y_3_4      demand_4   1
    y_3_5      OBJ        24510
    y_3_5      capacity_3 114
    y_3_5      demand_5   1
    y_3_6      OBJ        20736
    y_3_6      capacity_3 108
    y_3_6      demand_6   1
    y_3_7      OBJ        22540
    y_3_7      capacity_3 92
    y_3_7      demand_7   1
    y_3_8      OBJ        20944
    y_3_8      capacity_3 77
    y_3_8      demand_8   1
    y_3_9      OBJ        10230
    y_3_9      capacity_3 66
    y_3_9      demand_9   1
    y_3_10     OBJ        4224
    y_3_10     capacity_3 64
    y_3_10     demand_10  1
    y_3_11     OBJ        11956
    y_3_11     capacity_3 61
    y_3_11     demand_11  1
    y_3_12     OBJ        21360
    y_3_12     capacity_3 60
    y_3_12     demand_12  1
    y_3_13     OBJ        10450
    y_3_13     capacity_3 55
    y_3_13     demand_13  1
    y_3_14     OBJ        11526
    y_3_14     capacity_3 51
    y_3_14     demand_14  1
    y_4_0      OBJ        264924
    y_4_0      capacity_4 297
    y_4_0      demand_0   1
    y_4_1      OBJ        13962
    y_4_1      capacity_4 179
    y_4_1      demand_1   1
    y_4_2      OBJ        78078
    y_4_2      capacity_4 169
    y_4_2      demand_2   1
    y_4_3      OBJ        31605
    y_4_3      capacity_4 129
    y_4_3      demand_3   1
    y_4_4      OBJ        0
    y_4_4      capacity_4 118
    y_4_4      demand_4   1
    y_4_5      OBJ        29070
    y_4_5      capacity_4 114
    y_4_5      demand_5   1
    y_4_6      OBJ        13176
    y_4_6      capacity_4 108
    y_4_6      demand_6   1
    y_4_7      OBJ        14720
    y_4_7      capacity_4 92
    y_4_7      demand_7   1
    y_4_8      OBJ        3234
    y_4_8      capacity_4 77
    y_4_8      demand_8   1
    y_4_9      OBJ        6270
    y_4_9      capacity_4 66
    y_4_9      demand_9   1
    y_4_10     OBJ        12736
    y_4_10     capacity_4 64
    y_4_10     demand_10  1
    y_4_11     OBJ        3416
    y_4_11     capacity_4 61
    y_4_11     demand_11  1
    y_4_12     OBJ        7440
    y_4_12     capacity_4 60
    y_4_12     demand_12  1
    y_4_13     OBJ        10175
    y_4_13     capacity_4 55
    y_4_13     demand_13  1
    y_4_14     OBJ        15708
    y_4_14     capacity_4 51
    y_4_14     demand_14  1
    y_5_0      OBJ        188892
    y_5_0      capacity_5 297
    y_5_0      demand_0   1
    y_5_1      OBJ        57638
    y_5_1      capacity_5 179
    y_5_1      demand_1   1
    y_5_2      OBJ        42081
    y_5_2      capacity_5 169
    y_5_2      demand_2   1
    y_5_3      OBJ        27735
    y_5_3      capacity_5 129
    y_5_3      demand_3   1
    y_5_4      OBJ        30090
    y_5_4      capacity_5 118
    y_5_4      demand_4   1
    y_5_5      OBJ        0
    y_5_5      capacity_5 114
    y_5_5      demand_5   1
    y_5_6      OBJ        14364
    y_5_6      capacity_5 108
    y_5_6      demand_6   1
    y_5_7      OBJ        10764
    y_5_7      capacity_5 92
    y_5_7      demand_7   1
    y_5_8      OBJ        22869
    y_5_8      capacity_5 77
    y_5_8      demand_8   1
    y_5_9      OBJ        15378
    y_5_9      capacity_5 66
    y_5_9      demand_9   1
    y_5_10     OBJ        10176
    y_5_10     capacity_5 64
    y_5_10     demand_10  1
    y_5_11     OBJ        15067
    y_5_11     capacity_5 61
    y_5_11     demand_11  1
    y_5_12     OBJ        22560
    y_5_12     capacity_5 60
    y_5_12     demand_12  1
    y_5_13     OBJ        3795
    y_5_13     capacity_5 55
    y_5_13     demand_13  1
    y_5_14     OBJ        2856
    y_5_14     capacity_5 51
    y_5_14     demand_14  1
    y_6_0      OBJ        228690
    y_6_0      capacity_6 297
    y_6_0      demand_0   1
    y_6_1      OBJ        34189
    y_6_1      capacity_6 179
    y_6_1      demand_1   1
    y_6_2      OBJ        59657
    y_6_2      capacity_6 169
    y_6_2      demand_2   1
    y_6_3      OBJ        24768
    y_6_3      capacity_6 129
    y_6_3      demand_3   1
    y_6_4      OBJ        14396
    y_6_4      capacity_6 118
    y_6_4      demand_4   1
    y_6_5      OBJ        15162
    y_6_5      capacity_6 114
    y_6_5      demand_5   1
    y_6_6      OBJ        0
    y_6_6      capacity_6 108
    y_6_6      demand_6   1
    y_6_7      OBJ        5704
    y_6_7      capacity_6 92
    y_6_7      demand_7   1
    y_6_8      OBJ        12628
    y_6_8      capacity_6 77
    y_6_8      demand_8   1
    y_6_9      OBJ        7920
    y_6_9      capacity_6 66
    y_6_9      demand_9   1
    y_6_10     OBJ        8128
    y_6_10     capacity_6 64
    y_6_10     demand_10  1
    y_6_11     OBJ        7320
    y_6_11     capacity_6 61
    y_6_11     demand_11  1
    y_6_12     OBJ        14580
    y_6_12     capacity_6 60
    y_6_12     demand_12  1
    y_6_13     OBJ        3465
    y_6_13     capacity_6 55
    y_6_13     demand_13  1
    y_6_14     OBJ        9486
    y_6_14     capacity_6 51
    y_6_14     demand_14  1
    y_7_0      OBJ        220374
    y_7_0      capacity_7 297
    y_7_0      demand_0   1
    y_7_1      OBJ        38485
    y_7_1      capacity_7 179
    y_7_1      demand_1   1
    y_7_2      OBJ        61178
    y_7_2      capacity_7 169
    y_7_2      demand_2   1
    y_7_3      OBJ        31605
    y_7_3      capacity_7 129
    y_7_3      demand_3   1
    y_7_4      OBJ        18880
    y_7_4      capacity_7 118
    y_7_4      demand_4   1
    y_7_5      OBJ        13338
    y_7_5      capacity_7 114
    y_7_5      demand_5   1
    y_7_6      OBJ        6696
    y_7_6      capacity_7 108
    y_7_6      demand_6   1
    y_7_7      OBJ        0
    y_7_7      capacity_7 92
    y_7_7      demand_7   1
    y_7_8      OBJ        15554
    y_7_8      capacity_7 77
    y_7_8      demand_8   1
    y_7_9      OBJ        11946
    y_7_9      capacity_7 66
    y_7_9      demand_9   1
    y_7_10     OBJ        11392
    y_7_10     capacity_7 64
    y_7_10     demand_10  1
    y_7_11     OBJ        10675
    y_7_11     capacity_7 61
    y_7_11     demand_11  1
    y_7_12     OBJ        16200
    y_7_12     capacity_7 60
    y_7_12     demand_12  1
    y_7_13     OBJ        3630
    y_7_13     capacity_7 55
    y_7_13     demand_13  1
    y_7_14     OBJ        8823
    y_7_14     capacity_7 51
    y_7_14     demand_14  1
    y_8_0      OBJ        277398
    y_8_0      capacity_8 297
    y_8_0      demand_0   1
    y_8_1      OBJ        9308
    y_8_1      capacity_8 179
    y_8_1      demand_1   1
    y_8_2      OBJ        84500
    y_8_2      capacity_8 169
    y_8_2      demand_2   1
    y_8_3      OBJ        35088
    y_8_3      capacity_8 129
    y_8_3      demand_3   1
    y_8_4      OBJ        4956
    y_8_4      capacity_8 118
    y_8_4      demand_4   1
    y_8_5      OBJ        33858
    y_8_5      capacity_8 114
    y_8_5      demand_5   1
    y_8_6      OBJ        17712
    y_8_6      capacity_8 108
    y_8_6      demand_6   1
    y_8_7      OBJ        18584
    y_8_7      capacity_8 92
    y_8_7      demand_7   1
    y_8_8      OBJ        0
    y_8_8      capacity_8 77
    y_8_8      demand_8   1
    y_8_9      OBJ        7722
    y_8_9      capacity_8 66
    y_8_9      demand_9   1
    y_8_10     OBJ        14848
    y_8_10     capacity_8 64
    y_8_10     demand_10  1
    y_8_11     OBJ        4636
    y_8_11     capacity_8 61
    y_8_11     demand_11  1
    y_8_12     OBJ        5160
    y_8_12     capacity_8 60
    y_8_12     demand_12  1
    y_8_13     OBJ        12485
    y_8_13     capacity_8 55
    y_8_13     demand_13  1
    y_8_14     OBJ        17850
    y_8_14     capacity_8 51
    y_8_14     demand_14  1
    y_9_0      OBJ        254529
    y_9_0      capacity_9 297
    y_9_0      demand_0   1
    y_9_1      OBJ        29893
    y_9_1      capacity_9 179
    y_9_1      demand_1   1
    y_9_2      OBJ        67093
    y_9_2      capacity_9 169
    y_9_2      demand_2   1
    y_9_3      OBJ        19995
    y_9_3      capacity_9 129
    y_9_3      demand_3   1
    y_9_4      OBJ        11210
    y_9_4      capacity_9 118
    y_9_4      demand_4   1
    y_9_5      OBJ        26562
    y_9_5      capacity_9 114
    y_9_5      demand_5   1
    y_9_6      OBJ        12960
    y_9_6      capacity_9 108
    y_9_6      demand_6   1
    y_9_7      OBJ        16652
    y_9_7      capacity_9 92
    y_9_7      demand_7   1
    y_9_8      OBJ        9009
    y_9_8      capacity_9 77
    y_9_8      demand_8   1
    y_9_9      OBJ        0
    y_9_9      capacity_9 66
    y_9_9      demand_9   1
    y_9_10     OBJ        7808
    y_9_10     capacity_9 64
    y_9_10     demand_10  1
    y_9_11     OBJ        2501
    y_9_11     capacity_9 61
    y_9_11     demand_11  1
    y_9_12     OBJ        12000
    y_9_12     capacity_9 60
    y_9_12     demand_12  1
    y_9_13     OBJ        9295
    y_9_13     capacity_9 55
    y_9_13     demand_13  1
    y_9_14     OBJ        14076
    y_9_14     capacity_9 51
    y_9_14     demand_14  1
    y_10_0     OBJ        221859
    y_10_0     capacity_10 297
    y_10_0     demand_0   1
    y_10_1     OBJ        49583
    y_10_1     capacity_10 179
    y_10_1     demand_1   1
    y_10_2     OBJ        46475
    y_10_2     capacity_10 169
    y_10_2     demand_2   1
    y_10_3     OBJ        8514
    y_10_3     capacity_10 129
    y_10_3     demand_3   1
    y_10_4     OBJ        23482
    y_10_4     capacity_10 118
    y_10_4     demand_4   1
    y_10_5     OBJ        18126
    y_10_5     capacity_10 114
    y_10_5     demand_5   1
    y_10_6     OBJ        13716
    y_10_6     capacity_10 108
    y_10_6     demand_6   1
    y_10_7     OBJ        16376
    y_10_7     capacity_10 92
    y_10_7     demand_7   1
    y_10_8     OBJ        17864
    y_10_8     capacity_10 77
    y_10_8     demand_8   1
    y_10_9     OBJ        8052
    y_10_9     capacity_10 66
    y_10_9     demand_9   1
    y_10_10    OBJ        0
    y_10_10    capacity_10 64
    y_10_10    demand_10  1
    y_10_11    OBJ        9638
    y_10_11    capacity_10 61
    y_10_11    demand_11  1
    y_10_12    OBJ        19080
    y_10_12    capacity_10 60
    y_10_12    demand_12  1
    y_10_13    OBJ        6875
    y_10_13    capacity_10 55
    y_10_13    demand_13  1
    y_10_14    OBJ        9282
    y_10_14    capacity_10 51
    y_10_14    demand_14  1
    y_11_0     OBJ        261360
    y_11_0     capacity_11 297
    y_11_0     demand_0   1
    y_11_1     OBJ        22554
    y_11_1     capacity_11 179
    y_11_1     demand_1   1
    y_11_2     OBJ        72670
    y_11_2     capacity_11 169
    y_11_2     demand_2   1
    y_11_3     OBJ        25284
    y_11_3     capacity_11 129
    y_11_3     demand_3   1
    y_11_4     OBJ        6608
    y_11_4     capacity_11 118
    y_11_4     demand_4   1
    y_11_5     OBJ        28158
    y_11_5     capacity_11 114
    y_11_5     demand_5   1
    y_11_6     OBJ        12960
    y_11_6     capacity_11 108
    y_11_6     demand_6   1
    y_11_7     OBJ        16100
    y_11_7     capacity_11 92
    y_11_7     demand_7   1
    y_11_8     OBJ        5852
    y_11_8     capacity_11 77
    y_11_8     demand_8   1
    y_11_9     OBJ        2706
    y_11_9     capacity_11 66
    y_11_9     demand_9   1
    y_11_10    OBJ        10112
    y_11_10    capacity_11 64
    y_11_10    demand_10  1
    y_11_11    OBJ        0
    y_11_11    capacity_11 61
    y_11_11    demand_11  1
    y_11_12    OBJ        9600
    y_11_12    capacity_11 60
    y_11_12    demand_12  1
    y_11_13    OBJ        9845
    y_11_13    capacity_11 55
    y_11_13    demand_13  1
    y_11_14    OBJ        15045
    y_11_14    capacity_11 51
    y_11_14    demand_14  1
    y_12_0     OBJ        300267
    y_12_0     capacity_12 297
    y_12_0     demand_0   1
    y_12_1     OBJ        10024
    y_12_1     capacity_12 179
    y_12_1     demand_1   1
    y_12_2     OBJ        99034
    y_12_2     capacity_12 169
    y_12_2     demand_2   1
    y_12_3     OBJ        45924
    y_12_3     capacity_12 129
    y_12_3     demand_3   1
    y_12_4     OBJ        14632
    y_12_4     capacity_12 118
    y_12_4     demand_4   1
    y_12_5     OBJ        42864
    y_12_5     capacity_12 114
    y_12_5     demand_5   1
    y_12_6     OBJ        26244
    y_12_6     capacity_12 108
    y_12_6     demand_6   1
    y_12_7     OBJ        24840
    y_12_7     capacity_12 92
    y_12_7     demand_7   1
    y_12_8     OBJ        6622
    y_12_8     capacity_12 77
    y_12_8     demand_8   1
    y_12_9     OBJ        13200
    y_12_9     capacity_12 66
    y_12_9     demand_9   1
    y_12_10    OBJ        20352
    y_12_10    capacity_12 64
    y_12_10    demand_10  1
    y_12_11    OBJ        9760
    y_12_11    capacity_12 61
    y_12_11    demand_11  1
    y_12_12    OBJ        0
    y_12_12    capacity_12 60
    y_12_12    demand_12  1
    y_12_13    OBJ        16830
    y_12_13    capacity_12 55
    y_12_13    demand_13  1
    y_12_14    OBJ        21930
    y_12_14    capacity_12 51
    y_12_14    demand_14  1
    y_13_0     OBJ        209682
    y_13_0     capacity_13 297
    y_13_0     demand_0   1
    y_13_1     OBJ        45287
    y_13_1     capacity_13 179
    y_13_1     demand_1   1
    y_13_2     OBJ        50531
    y_13_2     capacity_13 169
    y_13_2     demand_2   1
    y_13_3     OBJ        24510
    y_13_3     capacity_13 129
    y_13_3     demand_3   1
    y_13_4     OBJ        21830
    y_13_4     capacity_13 118
    y_13_4     demand_4   1
    y_13_5     OBJ        7866
    y_13_5     capacity_13 114
    y_13_5     demand_5   1
    y_13_6     OBJ        6804
    y_13_6     capacity_13 108
    y_13_6     demand_6   1
    y_13_7     OBJ        6072
    y_13_7     capacity_13 92
    y_13_7     demand_7   1
    y_13_8     OBJ        17479
    y_13_8     capacity_13 77
    y_13_8     demand_8   1
    y_13_9     OBJ        11154
    y_13_9     capacity_13 66
    y_13_9     demand_9   1
    y_13_10    OBJ        8000
    y_13_10    capacity_13 64
    y_13_10    demand_10  1
    y_13_11    OBJ        10919
    y_13_11    capacity_13 61
    y_13_11    demand_11  1
    y_13_12    OBJ        18360
    y_13_12    capacity_13 60
    y_13_12    demand_12  1
    y_13_13    OBJ        0
    y_13_13    capacity_13 55
    y_13_13    demand_13  1
    y_13_14    OBJ        6273
    y_13_14    capacity_13 51
    y_13_14    demand_14  1
    y_14_0     OBJ        173745
    y_14_0     capacity_14 297
    y_14_0     demand_0   1
    y_14_1     OBJ        67304
    y_14_1     capacity_14 179
    y_14_1     demand_1   1
    y_14_2     OBJ        33631
    y_14_2     capacity_14 169
    y_14_2     demand_2   1
    y_14_3     OBJ        29154
    y_14_3     capacity_14 129
    y_14_3     demand_3   1
    y_14_4     OBJ        36344
    y_14_4     capacity_14 118
    y_14_4     demand_4   1
    y_14_5     OBJ        6384
    y_14_5     capacity_14 114
    y_14_5     demand_5   1
    y_14_6     OBJ        20088
    y_14_6     capacity_14 108
    y_14_6     demand_6   1
    y_14_7     OBJ        15916
    y_14_7     capacity_14 92
    y_14_7     demand_7   1
    y_14_8     OBJ        26950
    y_14_8     capacity_14 77
    y_14_8     demand_8   1
    y_14_9     OBJ        18216
    y_14_9     capacity_14 66
    y_14_9     demand_9   1
    y_14_10    OBJ        11648
    y_14_10    capacity_14 64
    y_14_10    demand_10  1
    y_14_11    OBJ        17995
    y_14_11    capacity_14 61
    y_14_11    demand_11  1
    y_14_12    OBJ        25800
    y_14_12    capacity_14 60
    y_14_12    demand_12  1
    y_14_13    OBJ        6765
    y_14_13    capacity_14 55
    y_14_13    demand_13  1
    y_14_14    OBJ        0
    y_14_14    capacity_14 51
    y_14_14    demand_14  1
    z_0        OBJ        300267
    z_0        demand_0   1
    z_1        OBJ        180969
    z_1        demand_1   1
    z_2        OBJ        170859
    z_2        demand_2   1
    z_3        OBJ        130419
    z_3        demand_3   1
    z_4        OBJ        119298
    z_4        demand_4   1
    z_5        OBJ        115254
    z_5        demand_5   1
    z_6        OBJ        109188
    z_6        demand_6   1
    z_7        OBJ        93012
    z_7        demand_7   1
    z_8        OBJ        77847
    z_8        demand_8   1
    z_9        OBJ        66726
    z_9        demand_9   1
    z_10       OBJ        64704
    z_10       demand_10  1
    z_11       OBJ        61671
    z_11       demand_11  1
    z_12       OBJ        60660
    z_12       demand_12  1
    z_13       OBJ        55605
    z_13       demand_13  1
    z_14       OBJ        51561
    z_14       demand_14  1
    MARKER    'MARKER'                 'INTORG'
    x_0        OBJ        115800
    x_0        capacity_0 -298
    x_1        OBJ        101800
    x_1        capacity_1 -340
    x_2        OBJ        72600
    x_2        capacity_2 -457
    x_3        OBJ        72400
    x_3        capacity_3 -279
    x_4        OBJ        38400
    x_4        capacity_4 -211
    x_5        OBJ        59200
    x_5        capacity_5 -368
    x_6        OBJ        66000
    x_6        capacity_6 -199
    x_7        OBJ        48400
    x_7        capacity_7 -375
    x_8        OBJ        71300
    x_8        capacity_8 -256
    x_9        OBJ        96600
    x_9        capacity_9 -322
    x_10       OBJ        71200
    x_10       capacity_10 -336
    x_11       OBJ        66600
    x_11       capacity_11 -242
    x_12       OBJ        161400
    x_12       capacity_12 -351
    x_13       OBJ        60800
    x_13       capacity_13 -301
    x_14       OBJ        61500
    x_14       capacity_14 -296
    MARKER    'MARKER'                 'INTEND'
RHS
    RHS       demand_0   1
    RHS       demand_1   1
    RHS       demand_2   1
    RHS       demand_3   1
    RHS       demand_4   1
    RHS       demand_5   1
    RHS       demand_6   1
    RHS       demand_7   1
    RHS       demand_8   1
    RHS       demand_9   1
    RHS       demand_10  1
    RHS       demand_11  1
    RHS       demand_12  1
    RHS       demand_13  1
    RHS       demand_14  1
    RHS       capacity_0 -0
    RHS       capacity_1 -0
    RHS       capacity_2 -0
    RHS       capacity_3 -0
    RHS       capacity_4 -0
    RHS       capacity_5 -0
    RHS       capacity_6 -0
    RHS       capacity_7 -0
    RHS       capacity_8 -0
    RHS       capacity_9 -0
    RHS       capacity_10 -0
    RHS       capacity_11 -0
    RHS       capacity_12 -0
    RHS       capacity_13 -0
    RHS       capacity_14 -0
BOUNDS
 LI BND       x_0        0
 UI BND       x_0        1
 LI BND       x_1        0
 UI BND       x_1        1
 LI BND       x_2        0
 UI BND       x_2        1
 LI BND       x_3        0
 UI BND       x_3        1
 LI BND       x_4        0
 UI BND       x_4        1
 LI BND       x_5        0
 UI BND       x_5        1
 LI BND       x_6        0
 UI BND       x_6        1
 LI BND       x_7        0
 UI BND       x_7        1
 LI BND       x_8        0
 UI BND       x_8        1
 LI BND       x_9        0
 UI BND       x_9        1
 LI BND       x_10       0
 UI BND       x_10       1
 LI BND       x_11       0
 UI BND       x_11       1
 LI BND       x_12       0
 UI BND       x_12       1
 LI BND       x_13       0
 UI BND       x_13       1
 LI BND       x_14       0
 UI BND       x_14       1
 LO BND       y_0_0      0
 UP BND       y_0_0      1
 LO BND       y_0_1      0
 UP BND       y_0_1      1
 LO BND       y_0_2      0
 UP BND       y_0_2      1
 LO BND       y_0_3      0
 UP BND       y_0_3      1
 LO BND       y_0_4      0
 UP BND       y_0_4      1
 LO BND       y_0_5      0
 UP BND       y_0_5      1
 LO BND       y_0_6      0
 UP BND       y_0_6      1
 LO BND       y_0_7      0
 UP BND       y_0_7      1
 LO BND       y_0_8      0
 UP BND       y_0_8      1
 LO BND       y_0_9      0
 UP BND       y_0_9      1
 LO BND       y_0_10     0
 UP BND       y_0_10     1
 LO BND       y_0_11     0
 UP BND       y_0_11     1
 LO BND       y_0_12     0
 UP BND       y_0_12     1
 LO BND       y_0_13     0
 UP BND       y_0_13     1
 LO BND       y_0_14     0
 UP BND       y_0_14     1
 LO BND       y_1_0      0
 UP BND       y_1_0      1
 LO BND       y_1_1      0
 UP BND       y_1_1      1
 LO BND       y_1_2      0
 UP BND       y_1_2      1
 LO BND       y_1_3      0
 UP BND       y_1_3      1
 LO BND       y_1_4      0
 UP BND       y_1_4      1
 LO BND       y_1_5      0
 UP BND       y_1_5      1
 LO BND       y_1_6      0
 UP BND       y_1_6      1
 LO BND       y_1_7      0
 UP BND       y_1_7      1
 LO BND       y_1_8      0
 UP BND       y_1_8      1
 LO BND       y_1_9      0
 UP BND       y_1_9      1
 LO BND       y_1_10     0
 UP BND       y_1_10     1
 LO BND       y_1_11     0
 UP BND       y_1_11     1
 LO BND       y_1_12     0
 UP BND       y_1_12     1
 LO BND       y_1_13     0
 UP BND       y_1_13     1
 LO BND       y_1_14     0
 UP BND       y_1_14     1
 LO BND       y_2_0      0
 UP BND       y_2_0      1
 LO BND       y_2_1      0
 UP BND       y_2_1      1
 LO BND       y_2_2      0
 UP BND       y_2_2      1
 LO BND       y_2_3      0
 UP BND       y_2_3      1
 LO BND       y_2_4      0
 UP BND       y_2_4      1
 LO BND       y_2_5      0
 UP BND       y_2_5      1
 LO BND       y_2_6      0
 UP BND       y_2_6      1
 LO BND       y_2_7      0
 UP BND       y_2_7      1
 LO BND       y_2_8      0
 UP BND       y_2_8      1
 LO BND       y_2_9      0
 UP BND       y_2_9      1
 LO BND       y_2_10     0
 UP BND       y_2_10     1
 LO BND       y_2_11     0
 UP BND       y_2_11     1
 LO BND       y_2_12     0
 UP BND       y_2_12     1
 LO BND       y_2_13     0
 UP BND       y_2_13     1
 LO BND       y_2_14     0
 UP BND       y_2_14     1
 LO BND       y_3_0      0
 UP BND       y_3_0      1
 LO BND       y_3_1      0
 UP BND       y_3_1      1
 LO BND       y_3_2      0
 UP BND       y_3_2      1
 LO BND       y_3_3      0
 UP BND       y_3_3      1
 LO BND       y_3_4      0
 UP BND       y_3_4      1
 LO BND       y_3_5      0
 UP BND       y_3_5      1
 LO BND       y_3_6      0
 UP BND       y_3_6      1
 LO BND       y_3_7      0
 UP BND       y_3_7      1
 LO BND       y_3_8      0
 UP BND       y_3_8      1
 LO BND       y_3_9      0
 UP BND       y_3_9      1
 LO BND       y_3_10     0
 UP BND       y_3_10     1
 LO BND       y_3_11     0
 UP BND       y_3_11     1
 LO BND       y_3_12     0
 UP BND       y_3_12     1
 LO BND       y_3_13     0
 UP BND       y_3_13     1
 LO BND       y_3_14     0
 UP BND       y_3_14     1
 LO BND       y_4_0      0
 UP BND       y_4_0      1
 LO BND       y_4_1      0
 UP BND       y_4_1      1
 LO BND       y_4_2      0
 UP BND       y_4_2      1
 LO BND       y_4_3      0
 UP BND       y_4_3      1
 LO BND       y_4_4      0
 UP BND       y_4_4      1
 LO BND       y_4_5      0
 UP BND       y_4_5      1
 LO BND       y_4_6      0
 UP BND       y_4_6      1
 LO BND       y_4_7      0
 UP BND       y_4_7      1
 LO BND       y_4_8      0
 UP BND       y_4_8      1
 LO BND       y_4_9      0
 UP BND       y_4_9      1
 LO BND       y_4_10     0
 UP BND       y_4_10     1
 LO BND       y_4_11     0
 UP BND       y_4_11     1
 LO BND       y_4_12     0
 UP BND       y_4_12     1
 LO BND       y_4_13     0
 UP BND       y_4_13     1
 LO BND       y_4_14     0
 UP BND       y_4_14     1
 LO BND       y_5_0      0
 UP BND       y_5_0      1
 LO BND       y_5_1      0
 UP BND       y_5_1      1
 LO BND       y_5_2      0
 UP BND       y_5_2      1
 LO BND       y_5_3      0
 UP BND       y_5_3      1
 LO BND       y_5_4      0
 UP BND       y_5_4      1
 LO BND       y_5_5      0
 UP BND       y_5_5      1
 LO BND       y_5_6      0
 UP BND       y_5_6      1
 LO BND       y_5_7      0
 UP BND       y_5_7      1
 LO BND       y_5_8      0
 UP BND       y_5_8      1
 LO BND       y_5_9      0
 UP BND       y_5_9      1
 LO BND       y_5_10     0
 UP BND       y_5_10     1
 LO BND       y_5_11     0
 UP BND       y_5_11     1
 LO BND       y_5_12     0
 UP BND       y_5_12     1
 LO BND       y_5_13     0
 UP BND       y_5_13     1
 LO BND       y_5_14     0
 UP BND       y_5_14     1
 LO BND       y_6_0      0
 UP BND       y_6_0      1
 LO BND       y_6_1      0
 UP BND       y_6_1      1
 LO BND       y_6_2      0
 UP BND       y_6_2      1
 LO BND       y_6_3      0
 UP BND       y_6_3      1
 LO BND       y_6_4      0
 UP BND       y_6_4      1
 LO BND       y_6_5      0
 UP BND       y_6_5      1
 LO BND       y_6_6      0
 UP BND       y_6_6      1
 LO BND       y_6_7      0
 UP BND       y_6_7      1
 LO BND       y_6_8      0
 UP BND       y_6_8      1
 LO BND       y_6_9      0
 UP BND       y_6_9      1
 LO BND       y_6_10     0
 UP BND       y_6_10     1
 LO BND       y_6_11     0
 UP BND       y_6_11     1
 LO BND       y_6_12     0
 UP BND       y_6_12     1
 LO BND       y_6_13     0
 UP BND       y_6_13     1
 LO BND       y_6_14     0
 UP BND       y_6_14     1
 LO BND       y_7_0      0
 UP BND       y_7_0      1
 LO BND       y_7_1      0
 UP BND       y_7_1      1
 LO BND       y_7_2      0
 UP BND       y_7_2      1
 LO BND       y_7_3      0
 UP BND       y_7_3      1
 LO BND       y_7_4      0
 UP BND       y_7_4      1
 LO BND       y_7_5      0
 UP BND       y_7_5      1
 LO BND       y_7_6      0
 UP BND       y_7_6      1
 LO BND       y_7_7      0
 UP BND       y_7_7      1
 LO BND       y_7_8      0
 UP BND       y_7_8      1
 LO BND       y_7_9      0
 UP BND       y_7_9      1
 LO BND       y_7_10     0
 UP BND       y_7_10     1
 LO BND       y_7_11     0
 UP BND       y_7_11     1
 LO BND       y_7_12     0
 UP BND       y_7_12     1
 LO BND       y_7_13     0
 UP BND       y_7_13     1
 LO BND       y_7_14     0
 UP BND       y_7_14     1
 LO BND       y_8_0      0
 UP BND       y_8_0      1
 LO BND       y_8_1      0
 UP BND       y_8_1      1
 LO BND       y_8_2      0
 UP BND       y_8_2      1
 LO BND       y_8_3      0
 UP BND       y_8_3      1
 LO BND       y_8_4      0
 UP BND       y_8_4      1
 LO BND       y_8_5      0
 UP BND       y_8_5      1
 LO BND       y_8_6      0
 UP BND       y_8_6      1
 LO BND       y_8_7      0
 UP BND       y_8_7      1
 LO BND       y_8_8      0
 UP BND       y_8_8      1
 LO BND       y_8_9      0
 UP BND       y_8_9      1
 LO BND       y_8_10     0
 UP BND       y_8_10     1
 LO BND       y_8_11     0
 UP BND       y_8_11     1
 LO BND       y_8_12     0
 UP BND       y_8_12     1
 LO BND       y_8_13     0
 UP BND       y_8_13     1
 LO BND       y_8_14     0
 UP BND       y_8_14     1
 LO BND       y_9_0      0
 UP BND       y_9_0      1
 LO BND       y_9_1      0
 UP BND       y_9_1      1
 LO BND       y_9_2      0
 UP BND       y_9_2      1
 LO BND       y_9_3      0
 UP BND       y_9_3      1
 LO BND       y_9_4      0
 UP BND       y_9_4      1
 LO BND       y_9_5      0
 UP BND       y_9_5      1
 LO BND       y_9_6      0
 UP BND       y_9_6      1
 LO BND       y_9_7      0
 UP BND       y_9_7      1
 LO BND       y_9_8      0
 UP BND       y_9_8      1
 LO BND       y_9_9      0
 UP BND       y_9_9      1
 LO BND       y_9_10     0
 UP BND       y_9_10     1
 LO BND       y_9_11     0
 UP BND       y_9_11     1
 LO BND       y_9_12     0
 UP BND       y_9_12     1
 LO BND       y_9_13     0
 UP BND       y_9_13     1
 LO BND       y_9_14     0
 UP BND       y_9_14     1
 LO BND       y_10_0     0
 UP BND       y_10_0     1
 LO BND       y_10_1     0
 UP BND       y_10_1     1
 LO BND       y_10_2     0
 UP BND       y_10_2     1
 LO BND       y_10_3     0
 UP BND       y_10_3     1
 LO BND       y_10_4     0
 UP BND       y_10_4     1
 LO BND       y_10_5     0
 UP BND       y_10_5     1
 LO BND       y_10_6     0
 UP BND       y_10_6     1
 LO BND       y_10_7     0
 UP BND       y_10_7     1
 LO BND       y_10_8     0
 UP BND       y_10_8     1
 LO BND       y_10_9     0
 UP BND       y_10_9     1
 LO BND       y_10_10    0
 UP BND       y_10_10    1
 LO BND       y_10_11    0
 UP BND       y_10_11    1
 LO BND       y_10_12    0
 UP BND       y_10_12    1
 LO BND       y_10_13    0
 UP BND       y_10_13    1
 LO BND       y_10_14    0
 UP BND       y_10_14    1
 LO BND       y_11_0     0
 UP BND       y_11_0     1
 LO BND       y_11_1     0
 UP BND       y_11_1     1
 LO BND       y_11_2     0
 UP BND       y_11_2     1
 LO BND       y_11_3     0
 UP BND       y_11_3     1
 LO BND       y_11_4     0
 UP BND       y_11_4     1
 LO BND       y_11_5     0
 UP BND       y_11_5     1
 LO BND       y_11_6     0
 UP BND       y_11_6     1
 LO BND       y_11_7     0
 UP BND       y_11_7     1
 LO BND       y_11_8     0
 UP BND       y_11_8     1
 LO BND       y_11_9     0
 UP BND       y_11_9     1
 LO BND       y_11_10    0
 UP BND       y_11_10    1
 LO BND       y_11_11    0
 UP BND       y_11_11    1
 LO BND       y_11_12    0
 UP BND       y_11_12    1
 LO BND       y_11_13    0
 UP BND       y_11_13    1
 LO BND       y_11_14    0
 UP BND       y_11_14    1
 LO BND       y_12_0     0
 UP BND       y_12_0     1
 LO BND       y_12_1     0
 UP BND       y_12_1     1
 LO BND       y_12_2     0
 UP BND       y_12_2     1
 LO BND       y_12_3     0
 UP BND       y_12_3     1
 LO BND       y_12_4     0
 UP BND       y_12_4     1
 LO BND       y_12_5     0
 UP BND       y_12_5     1
 LO BND       y_12_6     0
 UP BND       y_12_6     1
 LO BND       y_12_7     0
 UP BND       y_12_7     1
 LO BND       y_12_8     0
 UP BND       y_12_8     1
 LO BND       y_12_9     0
 UP BND       y_12_9     1
 LO BND       y_12_10    0
 UP BND       y_12_10    1
 LO BND       y_12_11    0
 UP BND       y_12_11    1
 LO BND       y_12_12    0
 UP BND       y_12_12    1
 LO BND       y_12_13    0
 UP BND       y_12_13    1
 LO BND       y_12_14    0
 UP BND       y_12_14    1
 LO BND       y_13_0     0
 UP BND       y_13_0     1
 LO BND       y_13_1     0
 UP BND       y_13_1     1
 LO BND       y_13_2     0
 UP BND       y_13_2     1
 LO BND       y_13_3     0
 UP BND       y_13_3     1
 LO BND       y_13_4     0
 UP BND       y_13_4     1
 LO BND       y_13_5     0
 UP BND       y_13_5     1
 LO BND       y_13_6     0
 UP BND       y_13_6     1
 LO BND       y_13_7     0
 UP BND       y_13_7     1
 LO BND       y_13_8     0
 UP BND       y_13_8     1
 LO BND       y_13_9     0
 UP BND       y_13_9     1
 LO BND       y_13_10    0
 UP BND       y_13_10    1
 LO BND       y_13_11    0
 UP BND       y_13_11    1
 LO BND       y_13_12    0
 UP BND       y_13_12    1
 LO BND       y_13_13    0
 UP BND       y_13_13    1
 LO BND       y_13_14    0
 UP BND       y_13_14    1
 LO BND       y_14_0     0
 UP BND       y_14_0     1
 LO BND       y_14_1     0
 UP BND       y_14_1     1
 LO BND       y_14_2     0
 UP BND       y_14_2     1
 LO BND       y_14_3     0
 UP BND       y_14_3     1
 LO BND       y_14_4     0
 UP BND       y_14_4     1
 LO BND       y_14_5     0
 UP BND       y_14_5     1
 LO BND       y_14_6     0
 UP BND       y_14_6     1
 LO BND       y_14_7     0
 UP BND       y_14_7     1
 LO BND       y_14_8     0
 UP BND       y_14_8     1
 LO BND       y_14_9     0
 UP BND       y_14_9     1
 LO BND       y_14_10    0
 UP BND       y_14_10    1
 LO BND       y_14_11    0
 UP BND       y_14_11    1
 LO BND       y_14_12    0
 UP BND       y_14_12    1
 LO BND       y_14_13    0
 UP BND       y_14_13    1
 LO BND       y_14_14    0
 UP BND       y_14_14    1
 LO BND       z_0        0
 UP BND       z_0        1
 LO BND       z_1        0
 UP BND       z_1        1
 LO BND       z_2        0
 UP BND       z_2        1
 LO BND       z_3        0
 UP BND       z_3        1
 LO BND       z_4        0
 UP BND       z_4        1
 LO BND       z_5        0
 UP BND       z_5        1
 LO BND       z_6        0
 UP BND       z_6        1
 LO BND       z_7        0
 UP BND       z_7        1
 LO BND       z_8        0
 UP BND       z_8        1
 LO BND       z_9        0
 UP BND       z_9        1
 LO BND       z_10       0
 UP BND       z_10       1
 LO BND       z_11       0
 UP BND       z_11       1
 LO BND       z_12       0
 UP BND       z_12       1
 LO BND       z_13       0
 UP BND       z_13       1
 LO BND       z_14       0
 UP BND       z_14       1
ENDATA
